============================[ Problem Statistics ]=============================|                                                                             ||  Number of variables:          4242                                         ||  Number of clauses:           10397                                         ||  Parse time:                   0.78 s                                       ||                                                                             |============================[ Search Statistics ]==============================| Conflicts |          ORIGINAL         |          LEARNT          | Progress ||           |    Vars  Clauses Literals |    Limit  Clauses Lit/Cl |          |===============================================================================|       100 |    1591     6602  1251183 |     2420      100     53 | 62.501 % ||       250 |    1591     6602  1251183 |     2662      250     75 | 62.495 % |===============================================================================restarts              : 4conflicts             : 423            (357 /sec)decisions             : 782            (0.00 % random) (660 /sec)propagations          : 13690          (11562 /sec)conflict literals     : 35458          (94.50 % deleted)CPU time              : 1.184 sSATISFIABLE